
Gurobi 13.0.1 (linux64) logging started Tue Apr  7 20:50:38 2026

Set parameter LogFile to value "logs_sparse/100B_3F_robust_gamma_0d05_theta_0d05199999999999999_2026-04-07_20h50m11s.log"
Set parameter MIPGap to value 0.005
Set parameter OptimalityTol to value 0.005
Gurobi Optimizer version 13.0.1 build v13.0.1rc0 (linux64 - "Linux Mint 22")

CPU model: 12th Gen Intel(R) Core(TM) i7-12700, instruction set [SSE2|AVX|AVX2]
Thread count: 20 physical cores, 20 logical processors, using up to 20 threads

Non-default parameters:
TimeLimit  3600
SoftMemLimit  12
MIPGap  0.005
OptimalityTol  0.005

Optimize a model with 60721 rows, 1531121 columns and 4635098 nonzeros (Max)
Model fingerprint: 0x392f9bc6
Model has 1485111 linear objective coefficients
Variable types: 16121 continuous, 1515000 integer (1515000 binary)
Coefficient statistics:
  Matrix range     [3e-05, 1e+05]
  Objective range  [1e+00, 3e+03]
  Bounds range     [1e+00, 1e+05]
  RHS range        [1e+00, 1e+05]

Presolve removed 36714 rows and 1241081 columns
Presolve time: 0.66s
Presolved: 24007 rows, 290040 columns, 921754 nonzeros
Variable types: 6446 continuous, 283594 integer (283594 binary)
Found heuristic solution: objective -4.87445e+08
Performing another presolve...
Presolve removed 18 rows and 26 columns
Presolve time: 1.27s
Deterministic concurrent LP optimizer: primal simplex, dual simplex, and barrier
Showing barrier log only...

Root barrier log...

Ordering time: 0.59s

Barrier statistics:
 AA' NZ     : 4.530e+05
 Factor NZ  : 4.046e+06 (roughly 160 MB of memory)
 Factor Ops : 1.382e+09 (less than 1 second per iteration)
 Threads    : 18

                  Objective                Residual
Iter       Primal          Dual         Primal    Dual     Compl     Time
   0  -1.39815356e+13  1.35089145e+09  5.53e+08 1.02e+03  1.42e+08     4s
   1  -2.67713849e+12  5.37761600e+09  1.06e+08 2.30e+02  2.76e+07     4s
   2  -7.62559482e+09  4.89293800e+09  3.27e+05 6.92e+00  9.25e+04     4s
   3  -3.67480573e+08  1.71761257e+09  1.58e+04 9.58e-01  6.83e+03     4s
   4   6.33707431e+07  1.13087360e+09  6.77e+03 2.77e-01  2.95e+03     4s
   5   2.86803335e+08  7.64633411e+08  1.88e+03 1.17e-01  1.09e+03     4s
   6   3.55110950e+08  4.64684547e+08  6.20e+02 1.84e-02  2.63e+02     4s
   7   3.66056449e+08  4.36158008e+08  4.25e+02 1.09e-02  1.71e+02     4s
   8   3.70072234e+08  4.24156422e+08  3.55e+02 7.68e-03  1.35e+02     4s
   9   3.83257750e+08  4.07301215e+08  1.12e+02 3.90e-03  5.43e+01     4s
  10   3.87189991e+08  3.99378494e+08  4.18e+01 1.99e-03  2.55e+01     4s
  11   3.88748077e+08  3.91666994e+08  1.35e+01 2.70e-04  6.28e+00     4s
  12   3.89324435e+08  3.90692791e+08  4.40e+00 1.06e-04  2.62e+00     4s
  13   3.89587901e+08  3.90287951e+08  8.08e-01 5.37e-05  1.22e+00     5s
  14   3.89636515e+08  3.90015425e+08  3.94e-01 2.66e-05  6.46e-01     5s
  15   3.89686448e+08  3.89876696e+08  1.47e-01 1.23e-05  3.22e-01     5s
  16   3.89703891e+08  3.89831911e+08  9.00e-02 7.80e-06  2.16e-01     5s
  17   3.89730082e+08  3.89784607e+08  2.77e-02 3.11e-06  9.21e-02     5s
  18   3.89737065e+08  3.89768135e+08  1.28e-02 1.62e-06  5.25e-02     5s
  19   3.89741168e+08  3.89757133e+08  4.61e-03 6.48e-07  2.70e-02     5s
  20   3.89742913e+08  3.89751722e+08  1.87e-03 3.18e-07  1.49e-02     5s
  21   3.89743472e+08  3.89748158e+08  1.02e-03 1.36e-07  7.92e-03     5s
  22   3.89743759e+08  3.89746604e+08  6.69e-04 6.65e-08  4.80e-03     5s
  23   3.89743927e+08  3.89745963e+08  4.57e-04 4.14e-08  3.44e-03     5s
  24   3.89744027e+08  3.89745588e+08  3.38e-04 2.86e-08  2.64e-03     5s
  25   3.89744111e+08  3.89745212e+08  2.50e-04 1.66e-08  1.86e-03     5s
  26   3.89744225e+08  3.89744929e+08  1.33e-04 5.71e-09  1.19e-03     5s
  27   3.89744249e+08  3.89744738e+08  1.06e-04 2.75e-09  8.24e-04     5s
  28   3.89744264e+08  3.89744619e+08  8.90e-05 7.50e-10  6.00e-04     5s
  29   3.89744272e+08  3.89744589e+08  8.11e-05 3.34e-10  5.35e-04     6s
  30   3.89744301e+08  3.89744556e+08  5.26e-05 2.72e-10  4.31e-04     6s
  31   3.89744314e+08  3.89744490e+08  4.05e-05 6.18e-11  2.98e-04     6s
  32   3.89744324e+08  3.89744432e+08  3.10e-05 5.18e-11  1.83e-04     6s
  33   3.89744339e+08  3.89744411e+08  1.79e-05 6.21e-11  1.22e-04     6s
  34   3.89744353e+08  3.89744386e+08  4.71e-06 4.77e-11  5.55e-05     6s
  35   3.89744356e+08  3.89744377e+08  2.41e-06 5.46e-11  3.49e-05     6s
  36   3.89744357e+08  3.89744372e+08  1.38e-06 6.01e-11  2.45e-05     6s
  37   3.89744358e+08  3.89744364e+08  5.53e-07 4.73e-11  9.73e-06     6s
  38   3.89744359e+08  3.89744362e+08  1.79e-07 4.75e-11  4.70e-06     6s
  39   3.89744359e+08  3.89744360e+08  3.97e-08 4.82e-11  1.45e-06     6s
  40   3.89744359e+08  3.89744360e+08  1.66e-09 5.00e-11  2.54e-07     6s
  41   3.89744359e+08  3.89744359e+08  2.90e-09 5.18e-11  3.56e-08     6s
  42   3.89744359e+08  3.89744359e+08  4.03e-08 5.09e-11  5.27e-09     6s

Barrier solved model in 42 iterations and 6.43 seconds (9.03 work units)
Optimal objective 3.89744359e+08


Root crossover log...

    6871 DPushes remaining with DInf 0.0000000e+00                 6s
       0 DPushes remaining with DInf 0.0000000e+00                 7s

    4862 PPushes remaining with PInf 2.9526370e-04                 7s
       0 PPushes remaining with PInf 0.0000000e+00                 7s

  Push phase complete: Pinf 0.0000000e+00, Dinf 2.2219174e+04      7s


Root simplex log...

Iteration    Objective       Primal Inf.    Dual Inf.      Time
   11577    3.8974436e+08   0.000000e+00   2.221883e+04      7s
   12420    3.8974436e+08   0.000000e+00   0.000000e+00      7s
Crossover time: 0.49 seconds (0.52 work units)
Concurrent spin time: 0.82s (can be avoided by choosing Method=3)

Solved with barrier

Root relaxation: objective 3.897444e+08, 12420 iterations, 5.16 seconds (5.11 work units)
Total elapsed time = 7.75s (DegenMoves)

    Nodes    |    Current Node    |     Objective Bounds      |     Work
 Expl Unexpl |  Obj  Depth IntInf | Incumbent    BestBd   Gap | It/Node Time

     0     0 3.8974e+08    0 7098 -4.874e+08 3.8974e+08   180%     -    8s
H    0     0                    4.411874e+07 3.8974e+08   783%     -    8s
H    0     0                    9.517035e+07 3.8974e+08   310%     -    8s
H    0     0                    9.948161e+07 3.8974e+08   292%     -    9s
H    0     0                    9.955337e+07 3.8974e+08   291%     -   11s
H    0     0                    9.964828e+07 3.8974e+08   291%     -   11s
H    0     0                    1.983390e+08 3.8974e+08  96.5%     -   12s
H    0     0                    3.080329e+08 3.8974e+08  26.5%     -   13s
H    0     0                    3.154487e+08 3.8974e+08  23.6%     -   15s
     0     0 3.8974e+08    0 7145 3.1545e+08 3.8974e+08  23.6%     -  541s
H    0     0                    3.155616e+08 3.8974e+08  23.5%     -  548s
H    0     0                    3.158856e+08 3.8974e+08  23.4%     -  576s
H    0     0                    3.175850e+08 3.8974e+08  22.7%     -  609s
H    0     0                    3.187566e+08 3.8974e+08  22.3%     -  633s
H    0     0                    3.187567e+08 3.8974e+08  22.3%     -  652s
H    0     0                    3.187568e+08 3.8974e+08  22.3%     -  685s
     0     0 3.8974e+08    0 7145 3.1876e+08 3.8974e+08  22.3%     - 1739s
     0     0 3.8974e+08    0 7251 3.1876e+08 3.8974e+08  22.3%     - 2694s
H    0     0                    3.512718e+08 3.8974e+08  11.0%     - 2704s
H    0     0                    3.560811e+08 3.8974e+08  9.45%     - 2705s
H    0     0                    3.591024e+08 3.8974e+08  8.53%     - 2716s
H    0     0                    3.626459e+08 3.8974e+08  7.47%     - 2752s
H    0     0                    3.636339e+08 3.8974e+08  7.18%     - 2855s
H    0     0                    3.647223e+08 3.8974e+08  6.86%     - 2958s
H    0     0                    3.650071e+08 3.8974e+08  6.78%     - 3164s
H    0     0                    3.650769e+08 3.8974e+08  6.76%     - 3164s
H    0     0                    3.650784e+08 3.8974e+08  6.76%     - 3169s
H    0     0                    3.651010e+08 3.8974e+08  6.75%     - 3169s
H    0     0                    3.651545e+08 3.8974e+08  6.73%     - 3169s
H    0     0                    3.651560e+08 3.8974e+08  6.73%     - 3193s
H    0     0                    3.651666e+08 3.8974e+08  6.73%     - 3221s
H    0     0                    3.652587e+08 3.8974e+08  6.70%     - 3228s
     0     0 3.8974e+08    0 7092 3.6526e+08 3.8974e+08  6.70%     - 3378s
     0     0          -    0      3.6526e+08 3.8974e+08  6.70%     - 3600s

Cutting planes:
  MIR: 47
  Flow cover: 71
  RLT: 2447
  Relax-and-lift: 81

Explored 1 nodes (972089 simplex iterations) in 3600.05 seconds (5710.48 work units)
Thread count was 20 (of 20 available processors)

Solution count 10: 3.65259e+08 3.65156e+08 3.65154e+08 ... 3.62646e+08

Time limit reached
Best objective 3.652587476922e+08, best bound 3.897420589756e+08, gap 6.7030%
